Route #1: 7 11
Route #2: 6 124 13
Route #3: 139 9 29
Route #4: 23 60 86 99 92 150 67 79 136 123 113
Route #5: 88 41 144 66 89 1 40 47 87 102
Route #6: 121 12 17
Route #7: 83 8
Route #8: 141 5 15 149
Route #9: 120 78 61 101 62 27 107 34
Route #10: 21
Route #11: 128 142 54 44 114 18 76 85 50 98 148 45 117
Route #12: 130 146 16 143
Route #13: 74 105 110 14 39
Route #14: 71 84 2 112 55 93 138 68 63 33
Route #15: 3 22 96 132 73
Route #16: 145 109 28 30
Route #17: 147 65 131 111 125 106 35 32 24 80 49 129
Route #18: 95 25 42
Route #19: 90 37 52 103 20 72 81 135 77 48
Route #20: 31 126 122 10
Route #21: 53 57 104 64 82 115 75 26 58 69 36
Route #22: 152 116 19 133 46 108 94 134 38
Route #23: 127 97 118 151 43 56 4 51 59 70 100 137 91 119 140
Cost 21225.000000